W=6;
H=6;

MAX_TIME=17;
MAX_TRACKS=12;

TARGET=(6,6);

TRAINS=[(1,5,DOWN),(1,2,DOWN)];

INIT_POS=[
(1,2,STRAIGHT_TD),
(1,5,STRAIGHT_TD),
(2,5,STRAIGHT_TD),
(3,5,STRAIGHT_TD),
(4,1,STRAIGHT_TD),
(4,2,STRAIGHT_TD),
(4,3,STRAIGHT_TD),
(4,5,STRAIGHT_TD),
(5,5,STRAIGHT_TD),
(6,5,SWITCH_L_R_T),
(6,6,STRAIGHT_RL),
];
TUNNEL_PAIRS=[];

GATES=[
(3,5,1,false),
(4,5,2,false),
(5,5,3,false),
];
ACTIVATIONS=[
(4,1,3),
(4,2,2),
(4,3,1),
];

DSWITCHES=[];

STATIONS=[];
